
(set-logic ALL) 

(declare-datatype MyList ((Nil) (Cons (head Real) (tail MyList)) )) 
(declare-fun l0 () MyList) 
(declare-fun l1 () MyList) 
(declare-fun l2 () MyList) 
(declare-fun l3 () MyList) 
(declare-fun i0 () Real) 
(declare-fun i1 () Real) 
(assert (= l1 Nil) )
(assert (and (is-Cons l2) (is-Nil l0) (= l1 Nil) (= l0 Nil)) )
(assert (is-Cons Nil) )
(assert (not (= l1 Nil)) )
(assert (is-Nil Nil) )
(assert (or (= l2 Nil) (is-Cons Nil) (= l1 l1) (= l2 l2)) )
(assert (= l3 Nil) )
(assert (and (is-Nil l1) (= l2 Nil) (= l3 l3) (is-Nil Nil)) )
(check-sat)
